c random assignment satisfied 2/430 clauses
o 428
c flipped 0/100 variables (k=0)
c solution improved by 204 clauses
o 224
c flipped 0/100 variables (k=0)
c solution improved by 16 clauses
o 208
c flipped 0/100 variables (k=0)
c solution improved by 16 clauses
o 192
c flipped 0/100 variables (k=0)
c solution improved by 25 clauses
o 167
c flipped 0/100 variables (k=0)
c solution improved by 1 clause
o 166
c flipped 0/100 variables (k=0)
c solution improved by 2 clauses
o 164
c flipped 0/100 variables (k=0)
c solution improved by 8 clauses
o 156
c flipped 0/100 variables (k=0)
c solution improved by 8 clauses
o 148
c flipped 0/100 variables (k=0)
c solution improved by 1 clause
o 147
c flipped 0/100 variables (k=0)
c solution improved by 20 clauses
o 127
c flipped 0/100 variables (k=0)
c solution improved by 8 clauses
o 119
c flipped 0/100 variables (k=0)
c solution improved by 7 clauses
o 112
c flipped 0/100 variables (k=0)
c solution improved by 1 clause
o 111
c flipped 0/100 variables (k=0)
c solution improved by 1 clause
o 110
c flipped 0/100 variables (k=0)
c solution improved by 2 clauses
o 108
c flipped 0/100 variables (k=0)
c solution improved by 13 clauses
o 95
c flipped 0/100 variables (k=0)
c solution improved by 8 clauses
o 87
c flipped 0/100 variables (k=0)
c solution improved by 1 clause
o 86
c flipped 0/100 variables (k=0)
c solution improved by 32 clauses
o 54
c flipped 0/100 variables (k=0)
c solution improved by 10 clauses
o 44
v 1110101110011010110011001110011100101110010000100101010000111111001101110000010011010010011111011001
c stuck at 386/430 clauses with k=0
s UNKNOWN
